40-303
p edge 40 303
e 1 3
e 1 6
e 1 7
e 1 8
e 1 11
e 1 14
e 1 16
e 1 17
e 1 18
e 1 21
e 1 23
e 1 26
e 1 28
e 1 30
e 1 31
e 1 32
e 1 33
e 1 35
e 1 37
e 1 40
e 2 6
e 2 8
e 2 12
e 2 13
e 2 16
e 2 19
e 2 22
e 2 23
e 2 25
e 2 27
e 2 28
e 2 30
e 2 31
e 2 32
e 2 35
e 2 36
e 2 38
e 2 40
e 3 6
e 3 7
e 3 11
e 3 13
e 3 20
e 3 24
e 3 26
e 3 28
e 3 29
e 3 30
e 3 33
e 3 37
e 4 6
e 4 8
e 4 9
e 4 17
e 4 18
e 4 19
e 4 21
e 4 24
e 4 26
e 4 27
e 4 33
e 4 34
e 4 37
e 4 40
e 5 8
e 5 10
e 5 14
e 5 15
e 5 19
e 5 20
e 5 23
e 5 30
e 5 33
e 5 34
e 5 40
e 6 7
e 6 9
e 6 12
e 6 18
e 6 21
e 6 22
e 6 24
e 6 29
e 6 31
e 6 33
e 6 36
e 6 37
e 6 38
e 6 39
e 7 8
e 7 10
e 7 11
e 7 13
e 7 15
e 7 17
e 7 23
e 7 26
e 7 29
e 7 30
e 7 31
e 7 32
e 7 34
e 7 36
e 7 37
e 7 38
e 7 39
e 8 10
e 8 12
e 8 16
e 8 17
e 8 23
e 8 24
e 8 26
e 8 27
e 8 30
e 8 31
e 8 33
e 8 35
e 9 11
e 9 12
e 9 13
e 9 14
e 9 15
e 9 16
e 9 18
e 9 20
e 9 24
e 9 25
e 9 26
e 9 30
e 9 35
e 9 37
e 9 39
e 10 12
e 10 18
e 10 19
e 10 20
e 10 22
e 10 23
e 10 24
e 10 33
e 10 34
e 10 35
e 10 36
e 11 13
e 11 15
e 11 16
e 11 17
e 11 28
e 11 30
e 11 35
e 11 37
e 11 38
e 12 16
e 12 18
e 12 20
e 12 24
e 12 27
e 12 28
e 12 32
e 12 33
e 12 34
e 12 35
e 12 36
e 13 18
e 13 21
e 13 24
e 13 25
e 13 27
e 13 30
e 13 31
e 13 32
e 13 33
e 13 35
e 13 37
e 13 38
e 14 17
e 14 19
e 14 21
e 14 25
e 14 26
e 14 27
e 14 28
e 14 31
e 14 36
e 14 37
e 14 38
e 14 39
e 14 40
e 15 17
e 15 20
e 15 22
e 15 23
e 15 27
e 15 28
e 15 34
e 15 36
e 15 38
e 15 39
e 15 40
e 16 24
e 16 27
e 16 28
e 16 30
e 16 35
e 16 37
e 17 20
e 17 27
e 17 28
e 17 31
e 17 32
e 17 34
e 17 36
e 17 37
e 18 26
e 18 27
e 18 29
e 18 33
e 18 37
e 18 39
e 19 25
e 19 29
e 19 31
e 19 32
e 19 34
e 19 35
e 19 39
e 20 21
e 20 27
e 20 30
e 21 23
e 21 25
e 21 26
e 21 27
e 21 28
e 21 34
e 21 36
e 21 37
e 21 38
e 22 24
e 22 28
e 23 25
e 23 27
e 23 28
e 23 31
e 23 32
e 23 34
e 23 35
e 23 37
e 23 38
e 23 39
e 23 40
e 24 26
e 24 33
e 24 39
e 24 40
e 25 26
e 25 32
e 25 37
e 26 27
e 26 32
e 26 33
e 26 34
e 26 37
e 26 38
e 27 30
e 27 35
e 27 36
e 27 37
e 27 39
e 27 40
e 28 30
e 28 32
e 28 35
e 28 38
e 29 30
e 29 31
e 29 33
e 29 34
e 29 39
e 30 32
e 30 33
e 30 36
e 30 38
e 30 40
e 31 32
e 31 33
e 31 39
e 31 40
e 32 33
e 32 38
e 33 34
e 33 35
e 33 36
e 33 38
e 33 39
e 33 40
e 34 35
e 34 38
e 34 40
e 35 38
e 37 39
e 38 40
